 200 61 
 35 28 47 54 6 4 27 52 69 15 30 42 
 51 79 32 28 35 40 3 90 58 78 93 13 
 65 67 54 33 21 94 8 92 33 77 29 1 
 67 65 6 66 90 50 24 68 41 17 5 54 
 72 52 35 45 12 87 9 2 47 15 14 31 
 2 
 18 
 5 8 10 16 17 20 25 29 33 34 39 45 
 47 48 49 53 54 55 
 20 
 3 5 10 11 13 15 21 22 29 31 39 43 
 45 47 52 55 56 57 59 60 
 11 
 1 16 18 24 25 29 47 56 57 60 61 
 45 
 1 3 4 5 7 8 9 11 12 13 14 15 
 16 17 19 21 22 23 24 25 27 28 29 32 
 33 34 36 38 39 40 41 42 43 46 47 49 
 50 52 55 56 57 58 59 60 61 
 9 
 5 8 16 23 27 28 31 38 40 
 52 
 1 2 3 4 5 6 8 9 10 11 12 13 
 14 15 17 18 19 20 21 22 23 24 25 26 
 27 28 29 30 31 32 33 34 37 38 41 42 
 43 45 46 48 49 50 51 52 53 54 55 56 
 57 58 60 61 
 60 
 1 2 3 4 5 6 7 8 9 10 11 12 
 13 14 15 16 17 18 19 20 21 22 23 24 
 25 26 27 29 30 31 32 33 34 35 36 37 
 38 39 40 41 42 43 44 45 46 47 48 49 
 50 51 52 53 54 55 56 57 58 59 60 61 
 12 
 3 6 9 16 17 24 27 36 40 50 51 58 
 30 
 4 5 6 8 10 12 16 19 20 22 26 30 
 31 33 35 37 38 39 40 44 46 48 50 51 
 52 55 56 59 60 61 
 61 
 1 2 3 4 5 6 7 8 9 10 11 12 
 13 14 15 16 17 18 19 20 21 22 23 24 
 25 26 27 28 29 30 31 32 33 34 35 36 
 37 38 39 40 41 42 43 44 45 46 47 48 
 49 50 51 52 53 54 55 56 57 58 59 60 
 61 
 15 
 1 4 9 11 18 22 24 26 29 35 39 42 
 47 51 53 
 12 
 6 10 16 19 24 26 34 35 36 43 50 55 
 54 
 1 2 3 4 5 6 7 8 9 10 11 13 
 14 15 16 18 19 20 22 23 24 25 26 27 
 28 29 30 31 32 34 36 37 38 39 40 41 
 42 43 44 45 46 47 49 50 52 53 54 55 
 56 57 58 59 60 61 
 55 
 1 2 3 4 5 6 8 9 10 11 12 13 
 14 15 16 17 18 19 20 21 22 23 24 26 
 27 28 30 32 33 34 35 37 38 39 40 41 
 42 43 44 45 47 48 49 50 51 52 53 54 
 55 56 57 58 59 60 61 
 18 
 1 3 5 6 9 11 13 19 21 32 35 37 
 38 40 41 45 49 54 
 58 
 1 2 3 4 5 6 7 8 9 10 11 12 
 13 14 15 16 17 18 19 20 21 22 24 25 
 26 27 28 29 30 31 32 33 34 35 36 37 
 38 39 40 41 42 43 44 45 46 47 48 49 
 50 51 52 54 55 56 57 58 59 60 
 39 
 2 5 6 7 8 9 12 14 16 17 19 20 
 21 22 23 25 26 27 28 29 31 33 34 37 
 38 39 40 41 42 43 45 47 50 51 52 53 
 55 56 61 
 30 
 2 3 4 7 8 9 10 11 16 18 20 22 
 23 24 25 26 29 31 32 34 35 41 42 44 
 49 50 53 54 55 57 
 7 
 2 5 15 17 31 33 61 
 10 
 2 6 12 25 31 32 39 40 49 58 
 50 
 1 3 4 5 6 7 8 9 10 11 12 13 
 14 16 17 19 20 21 22 23 24 25 27 29 
 30 31 32 33 34 35 36 37 38 39 40 41 
 42 43 44 45 46 47 48 49 51 54 55 58 
 59 61 
 59 
 1 2 3 4 5 6 7 8 9 10 11 12 
 13 14 15 16 17 18 19 20 21 22 23 24 
 25 26 27 28 29 30 31 32 33 34 35 36 
 38 39 40 41 42 43 44 45 46 47 48 49 
 50 51 52 53 54 55 56 58 59 60 61 
 19 
 2 11 22 23 25 26 27 28 31 32 33 34 
 36 44 45 52 55 57 58 
 38 
 2 3 4 6 7 9 10 11 13 14 15 16 
 17 18 19 20 22 24 26 27 29 30 31 32 
 35 36 37 38 40 42 50 51 53 54 56 57 
 58 60 
 51 
 1 2 3 4 6 7 8 11 13 14 15 16 
 18 20 21 22 23 24 25 26 27 28 29 30 
 31 33 34 35 37 38 39 40 41 42 44 45 
 46 47 48 49 50 51 52 53 54 55 56 57 
 59 60 61 
 48 
 1 2 3 4 6 7 9 10 11 12 14 15 
 16 17 18 19 20 21 22 24 25 26 28 30 
 31 32 33 34 35 36 38 39 40 42 43 44 
 45 47 48 49 51 53 54 55 56 58 60 61 
 33 
 1 8 13 14 18 19 20 21 22 24 26 27 
 28 29 33 34 35 36 37 38 40 43 44 45 
 47 48 50 51 52 53 55 58 59 
 5 
 10 20 39 53 59 
 60 
 1 2 3 4 5 6 7 8 9 10 11 12 
 13 14 15 16 17 18 19 20 21 22 23 24 
 25 26 27 28 29 30 31 32 33 34 35 36 
 37 38 39 40 41 42 43 44 45 46 47 48 
 49 50 51 52 53 54 55 56 57 58 59 60 
 38 
 1 2 3 6 9 11 13 14 16 19 20 23 
 24 25 26 28 30 32 34 35 36 37 39 40 
 42 44 48 49 50 51 52 54 55 57 58 59 
 60 61 
 32 
 4 7 8 9 10 11 12 14 15 16 19 22 
 23 24 25 26 27 28 31 32 33 38 42 43 
 44 45 50 51 54 58 59 60 
 36 
 3 5 6 9 11 12 14 16 17 20 22 24 
 26 27 28 29 30 31 33 34 35 36 37 38 
 41 44 45 47 49 52 54 56 58 59 60 61 
 61 
 1 2 3 4 5 6 7 8 9 10 11 12 
 13 14 15 16 17 18 19 20 21 22 23 24 
 25 26 27 28 29 30 31 32 33 34 35 36 
 37 38 39 40 41 42 43 44 45 46 47 48 
 49 50 51 52 53 54 55 56 57 58 59 60 
 61 
 27 
 2 4 7 9 10 13 14 18 19 24 28 41 
 43 44 46 47 49 50 51 52 53 56 57 58 
 59 60 61 
 58 
 1 2 3 4 5 6 7 8 9 10 11 12 
 13 14 15 16 17 19 20 21 22 23 25 26 
 27 28 29 30 31 32 33 34 36 37 38 39 
 40 41 42 43 44 45 46 47 48 49 50 51 
 52 53 54 55 56 57 58 59 60 61 
 23 
 1 2 3 6 7 14 16 19 22 23 24 25 
 26 44 45 46 50 51 52 53 56 57 60 
 23 
 1 3 7 10 12 15 16 18 20 22 30 31 
 32 33 34 37 38 42 50 55 56 60 61 
 4 
 31 36 50 53 
 49 
 1 2 3 4 6 7 8 9 10 11 12 13 
 14 16 18 20 21 24 25 26 27 28 29 30 
 31 34 35 36 37 38 39 40 41 42 43 44 
 47 48 49 50 51 52 53 54 55 57 59 60 
 61 
 7 
 5 19 29 33 42 43 50 
 34 
 1 2 8 9 11 13 14 16 17 18 19 20 
 21 22 24 26 28 29 32 34 35 36 40 42 
 45 47 49 51 53 54 55 56 58 60 
 60 
 1 2 3 4 5 6 7 8 9 10 11 12 
 13 14 15 16 17 18 19 20 21 22 23 24 
 25 26 27 28 29 30 31 32 33 34 35 36 
 37 38 39 40 41 42 43 44 45 46 47 48 
 49 50 51 52 53 54 55 56 58 59 60 61 
 48 
 1 2 4 6 7 9 10 11 12 13 15 16 
 17 18 19 22 23 24 26 27 29 30 31 32 
 33 34 35 36 37 38 40 41 42 43 44 46 
 47 48 50 51 52 53 55 57 58 59 60 61 
 21 
 2 3 9 10 18 20 26 30 34 36 38 40 
 45 46 48 50 52 54 55 58 61 
 32 
 5 7 8 9 11 12 14 15 17 18 19 20 
 24 25 30 32 33 34 35 38 39 43 44 45 
 46 48 50 51 54 55 60 61 
 36 
 1 2 4 6 7 8 12 13 14 15 19 20 
 22 25 27 29 30 32 33 37 38 40 41 42 
 43 45 46 47 49 50 51 52 57 58 59 60 
 45 
 1 2 4 5 6 7 8 9 11 12 13 15 
 16 19 21 23 24 25 27 29 30 31 32 33 
 34 35 36 37 39 42 44 45 46 47 49 50 
 51 52 53 54 55 58 59 60 61 
 49 
 1 3 4 5 6 7 8 9 10 11 12 13 
 14 15 16 17 18 19 20 22 23 24 25 26 
 27 28 30 32 33 34 35 36 38 40 43 45 
 47 49 50 51 52 53 54 55 56 57 58 59 
 61 
 28 
 1 2 4 5 9 10 11 12 16 20 23 25 
 28 30 32 35 36 37 40 43 44 46 48 50 
 53 54 55 57 
 47 
 1 2 3 4 5 6 8 9 10 11 12 13 
 14 15 16 17 19 20 22 23 24 26 27 29 
 31 32 33 34 36 38 39 40 41 43 44 45 
 46 48 49 50 51 52 54 55 56 59 61 
 6 
 3 36 44 47 57 60 
 35 
 2 6 7 8 9 10 12 13 14 15 16 17 
 19 20 21 25 26 27 29 30 31 37 38 39 
 40 42 44 45 49 50 51 54 56 57 61 
 27 
 3 6 7 9 12 13 18 19 20 21 22 23 
 24 28 31 38 40 43 45 46 49 51 54 57 
 58 59 60 
 29 
 1 2 3 4 6 10 11 16 17 19 26 28 
 29 34 36 37 38 39 41 43 44 45 50 53 
 55 56 59 60 61 
 45 
 1 2 3 4 5 6 7 10 13 14 15 18 
 20 22 24 25 26 27 28 29 30 31 32 34 
 35 37 38 39 40 41 42 45 46 47 48 49 
 50 53 55 56 57 58 59 60 61 
 22 
 2 4 8 10 11 12 13 17 21 22 27 30 
 32 33 37 44 48 49 55 57 58 60 
 21 
 5 6 12 13 18 21 22 24 28 32 36 40 
 41 43 47 49 51 52 53 60 61 
 10 
 2 9 14 21 22 35 39 52 53 56 
 25 
 3 6 7 8 11 12 13 14 15 17 19 23 
 24 26 27 34 35 36 40 41 44 50 51 54 
 56 
 50 
 1 3 5 6 7 8 9 10 11 12 14 15 
 17 18 19 20 21 22 23 24 26 27 28 29 
 30 31 32 33 34 35 36 37 38 39 42 44 
 45 46 47 48 49 50 52 53 54 55 56 57 
 58 60 
 41 
 1 4 5 6 8 9 10 11 12 13 15 16 
 17 18 21 23 24 25 27 28 29 30 31 32 
 33 35 37 38 40 42 43 44 48 49 54 55 
 56 57 59 60 61 
 58 
 1 2 3 4 6 7 8 9 10 11 12 13 
 14 15 16 17 18 19 20 21 22 24 25 26 
 27 28 29 30 31 32 33 34 35 36 37 38 
 39 40 41 42 43 44 45 46 47 48 49 51 
 52 53 54 55 56 57 58 59 60 61 
 54 
 1 2 3 4 5 7 8 9 10 12 13 15 
 16 17 18 19 20 21 22 23 24 25 26 27 
 28 29 30 31 32 33 34 35 36 37 38 39 
 40 42 44 46 47 48 49 50 51 52 53 54 
 55 56 57 59 60 61 
 10 
 13 14 22 26 32 46 53 54 60 61 
 38 
 3 4 5 6 7 9 10 11 12 15 16 17 
 21 23 24 26 27 29 30 32 33 36 37 38 
 39 40 42 45 46 47 49 50 52 53 56 57 
 58 60 
 36 
 2 4 6 7 8 9 11 12 13 14 15 16 
 19 24 26 27 28 29 31 32 33 35 36 38 
 42 43 44 46 48 51 53 54 56 57 58 60 
 47 
 3 4 5 7 8 10 11 12 14 15 16 18 
 19 20 21 22 23 24 25 26 27 28 29 30 
 31 32 33 34 36 37 39 40 42 43 44 45 
 46 47 48 49 50 52 53 54 57 60 61 
 11 
 4 6 14 23 25 27 44 46 50 52 57 
 17 
 2 4 8 14 15 25 26 27 38 39 43 46 
 50 52 56 58 59 
 23 
 1 3 8 10 11 16 18 20 21 25 36 41 
 43 45 48 49 50 51 52 54 55 56 60 
 28 
 1 2 6 7 9 11 12 15 16 17 20 22 
 23 29 30 35 37 38 41 42 43 47 48 50 
 52 54 58 59 
 33 
 1 2 5 6 9 10 12 15 16 17 18 20 
 22 23 25 26 29 30 35 36 39 41 43 44 
 48 50 51 52 53 57 59 60 61 
 32 
 1 2 4 6 7 12 13 14 16 17 18 19 
 20 24 27 29 30 31 32 33 34 35 36 37 
 42 45 47 49 56 57 59 61 
 17 
 1 6 9 10 12 15 19 21 22 23 24 27 
 31 35 46 51 60 
 47 
 2 4 5 6 9 10 11 12 13 16 17 18 
 19 20 21 22 23 24 25 27 28 29 30 32 
 33 34 35 36 37 38 40 41 42 43 45 46 
 47 48 50 51 53 54 55 56 57 58 60 
 40 
 1 2 3 5 6 7 10 11 13 14 17 19 
 20 21 22 23 25 31 32 33 35 36 37 39 
 41 42 44 45 46 48 49 51 52 54 55 56 
 57 59 60 61 
 59 
 1 2 3 4 5 6 7 8 9 11 12 13 
 14 15 16 17 18 19 20 21 22 23 24 25 
 26 27 28 29 30 31 32 33 34 35 36 37 
 38 40 41 42 43 44 45 46 47 48 49 50 
 51 52 53 54 55 56 57 58 59 60 61 
 36 
 2 3 4 5 6 7 9 11 12 13 14 16 
 17 20 22 23 25 26 27 28 32 36 37 39 
 40 41 42 43 44 47 51 52 54 56 57 61 
 25 
 4 5 6 7 9 13 14 16 17 22 26 35 
 41 42 43 44 45 46 48 51 53 54 55 57 
 61 
 54 
 1 2 3 4 5 6 7 8 9 10 12 13 
 14 15 16 17 18 19 20 21 22 23 24 26 
 27 28 29 30 31 33 34 35 36 37 38 39 
 40 41 42 43 44 45 46 47 48 49 50 51 
 53 54 55 56 60 61 
 48 
 1 2 3 4 5 6 7 8 9 10 11 12 
 13 14 16 17 18 20 22 23 25 26 28 30 
 32 33 34 35 36 38 39 40 41 42 43 44 
 45 47 49 50 51 52 53 57 58 59 60 61 
 49 
 1 2 3 5 6 7 8 9 11 12 14 15 
 16 17 18 20 22 23 24 25 26 29 30 31 
 32 33 34 35 36 37 39 40 42 43 44 45 
 46 48 49 50 51 52 53 54 56 57 58 59 
 61 
 61 
 1 2 3 4 5 6 7 8 9 10 11 12 
 13 14 15 16 17 18 19 20 21 22 23 24 
 25 26 27 28 29 30 31 32 33 34 35 36 
 37 38 39 40 41 42 43 44 45 46 47 48 
 49 50 51 52 53 54 55 56 57 58 59 60 
 61 
 54 
 1 2 3 4 5 6 7 8 9 10 12 13 
 14 15 16 18 19 20 21 23 24 25 26 27 
 28 29 31 32 33 34 35 36 37 38 39 40 
 41 42 43 44 45 46 47 49 50 51 52 53 
 54 56 57 58 59 61 
 47 
 1 2 3 4 5 6 7 8 10 12 13 18 
 19 20 21 22 23 25 26 27 28 29 30 31 
 32 33 34 35 37 38 40 41 42 46 47 48 
 49 51 52 53 54 55 56 57 58 59 61 
 3 
 15 26 56 
 34 
 1 2 4 5 8 10 12 16 17 20 24 25 
 26 29 30 31 32 33 34 38 40 44 45 46 
 49 50 51 52 54 55 56 58 59 60 
 19 
 2 3 8 9 15 17 23 26 32 33 36 39 
 40 41 43 45 55 58 61 
 43 
 2 4 5 6 7 10 11 13 16 18 19 20 
 21 22 23 24 25 26 28 29 30 31 32 33 
 34 35 36 40 41 42 43 44 46 49 50 51 
 52 53 54 56 57 60 61 
 40 
 1 3 4 6 7 8 9 10 11 12 13 14 
 15 17 18 21 22 24 26 28 29 31 32 33 
 34 37 38 41 42 43 44 45 46 48 49 52 
 53 55 58 61 
 32 
 4 5 6 8 9 10 11 17 21 23 25 27 
 29 31 35 37 38 40 42 43 44 45 46 48 
 51 53 54 57 58 59 60 61 
 2 
 10 43 
 53 
 1 2 3 5 6 8 9 10 11 12 13 15 
 16 17 18 20 21 22 23 24 25 26 27 28 
 29 30 31 33 34 35 36 37 39 40 41 43 
 44 45 46 47 48 49 50 51 52 53 54 56 
 57 58 59 60 61 
 14 
 2 10 11 12 19 21 26 34 40 41 43 47 
 49 57 
 45 
 1 2 3 4 5 6 8 9 11 12 13 14 
 16 17 18 19 20 22 23 24 25 27 29 30 
 32 33 35 37 38 40 41 44 45 46 47 48 
 49 50 52 54 57 58 59 60 61 
 24 
 1 2 4 6 7 9 12 15 19 23 25 28 
 31 32 36 38 42 44 49 50 51 56 59 60 
 22 
 2 5 9 11 12 15 16 17 18 28 33 38 
 39 41 45 47 48 50 51 57 60 61 
 28 
 2 3 9 10 11 12 13 14 16 17 18 20 
 21 23 24 25 28 29 32 34 35 40 47 49 
 50 51 52 60 
 36 
 1 2 4 5 6 9 11 12 14 16 17 20 
 21 22 23 25 29 30 34 35 40 41 42 43 
 45 46 49 50 52 54 56 57 58 59 60 61 
 20 
 7 11 23 30 31 34 36 40 42 45 46 48 
 49 50 51 53 54 57 58 61 
 8 
 3 11 23 29 32 34 39 56 
 58 
 1 2 3 4 5 6 7 8 9 10 11 12 
 13 14 15 16 17 18 19 20 21 22 23 24 
 25 26 27 28 30 32 33 34 35 36 37 38 
 39 40 42 43 44 45 46 47 48 49 50 51 
 52 53 54 55 56 57 58 59 60 61 
 47 
 1 2 3 5 6 7 9 10 11 12 13 14 
 15 16 17 18 21 23 24 26 27 28 29 30 
 32 33 34 36 37 38 41 42 43 44 45 46 
 47 48 50 51 53 55 56 57 58 59 60 
 3 
 2 36 39 
 39 
 1 3 4 5 6 7 8 9 11 12 13 14 
 15 16 19 21 22 27 28 29 30 31 32 34 
 35 37 38 39 42 44 45 46 49 51 56 57 
 58 60 61 
 2 
 12 56 
 43 
 1 4 5 7 8 9 10 13 14 15 16 18 
 19 20 22 23 24 27 28 29 30 35 36 37 
 39 40 41 42 43 44 45 46 47 49 50 51 
 52 54 57 58 59 60 61 
 6 
 8 11 15 20 22 41 
 30 
 2 4 10 12 14 17 18 19 20 24 27 28 
 29 30 31 33 35 37 42 44 45 51 52 53 
 54 55 56 57 58 60 
 3 
 2 29 48 
 20 
 2 4 8 9 12 14 19 23 27 32 36 39 
 40 41 43 45 46 56 57 59 
 38 
 2 4 5 6 8 9 12 16 17 18 20 21 
 24 25 29 30 31 33 34 35 36 38 39 40 
 41 42 45 47 48 50 52 53 54 56 57 59 
 60 61 
 39 
 1 3 4 6 7 8 9 10 11 13 17 18 
 19 20 23 26 27 29 31 33 34 35 37 38 
 39 40 42 43 44 45 46 47 52 55 56 57 
 58 59 61 
 55 
 1 2 3 4 5 6 7 8 9 11 12 15 
 16 17 19 20 21 22 23 24 25 26 27 28 
 29 30 31 32 33 35 36 37 38 39 40 41 
 42 43 44 45 46 47 48 49 50 51 52 53 
 54 55 56 57 58 60 61 
 37 
 2 5 7 8 9 10 12 13 15 17 18 20 
 22 23 24 25 26 27 29 30 31 32 33 37 
 38 40 41 42 44 45 47 50 51 52 53 59 
 61 
 31 
 3 4 5 7 8 10 11 12 13 15 16 17 
 21 23 25 26 27 29 31 35 39 42 46 49 
 50 53 54 58 59 60 61 
 29 
 2 6 7 10 11 12 13 14 16 17 21 24 
 25 27 28 30 34 39 42 43 45 50 51 53 
 54 55 58 59 60 
 7 
 18 19 21 28 33 36 52 
 9 
 7 19 22 24 31 35 40 52 60 
 5 
 1 6 15 27 61 
 41 
 2 3 4 5 6 8 9 11 13 15 16 17 
 19 20 21 22 24 25 26 27 28 31 32 35 
 38 41 42 43 45 47 48 49 51 52 53 54 
 56 57 58 59 61 
 6 
 4 10 12 14 26 32 
 25 
 1 6 9 10 12 14 15 19 23 24 25 29 
 35 36 38 40 41 43 44 48 49 50 54 60 
 61 
 28 
 1 2 5 6 7 12 14 17 18 20 24 26 
 30 31 33 35 36 38 41 43 44 45 49 50 
 51 53 57 61 
 24 
 1 8 11 12 16 21 22 23 25 27 28 29 
 30 34 35 37 38 40 41 44 51 54 59 61 
 11 
 2 3 6 19 29 34 45 47 48 56 61 
 14 
 3 4 7 17 18 19 26 27 32 33 38 39 
 40 46 
 4 
 7 25 37 42 
 6 
 4 10 21 31 41 61 
 31 
 1 2 4 5 9 14 16 17 18 19 20 24 
 27 28 30 31 33 34 39 42 44 45 47 48 
 51 52 53 54 57 58 61 
 11 
 9 11 13 14 19 27 34 38 53 54 60 
 24 
 1 3 4 5 10 12 15 22 23 30 31 32 
 35 37 41 42 45 48 49 51 52 55 59 60 
 53 
 1 2 3 4 5 6 7 8 9 11 12 13 
 14 15 16 17 18 19 20 22 23 24 25 26 
 27 28 29 30 31 32 33 34 35 36 40 41 
 42 43 46 47 48 49 50 51 52 53 54 55 
 56 57 58 59 60 
 59 
 1 2 3 4 5 6 7 8 9 10 11 12 
 14 15 16 17 18 19 20 21 22 23 24 25 
 26 27 28 29 30 31 32 33 34 35 36 37 
 38 39 40 41 42 43 44 45 47 48 49 50 
 51 52 53 54 55 56 57 58 59 60 61 
 28 
 5 8 10 11 12 13 14 15 16 17 18 19 
 28 30 31 33 36 37 40 45 47 51 53 54 
 56 57 59 60 
 26 
 2 5 6 7 10 15 20 21 22 27 29 31 
 33 34 36 39 40 42 44 47 48 50 57 58 
 59 60 
 5 
 15 44 45 50 54 
 43 
 2 3 7 8 9 12 13 14 15 16 17 18 
 20 23 24 25 27 29 30 31 32 33 34 35 
 36 38 40 41 42 44 45 46 49 50 51 52 
 53 54 55 56 58 59 60 
 19 
 2 11 13 14 17 18 20 21 22 25 28 32 
 34 42 44 49 56 59 61 
 43 
 1 2 3 4 5 6 8 10 11 12 13 16 
 17 19 21 22 23 24 25 27 29 30 31 33 
 36 40 41 42 43 44 45 47 48 49 50 51 
 52 53 54 56 57 59 60 
 2 
 5 61 
 26 
 1 2 3 4 7 8 14 19 22 23 28 30 
 35 37 38 41 43 45 47 48 49 52 53 54 
 55 58 
 48 
 1 2 3 4 5 7 8 10 11 12 14 16 
 17 18 19 20 21 22 23 24 25 26 27 28 
 29 30 31 32 33 34 36 37 38 39 40 41 
 42 43 45 46 47 49 50 51 54 55 59 61 
 31 
 1 2 3 5 6 10 12 13 16 18 21 22 
 24 25 28 30 36 37 38 40 41 46 48 49 
 50 52 53 55 58 59 61 
 56 
 1 2 3 4 5 6 7 8 9 10 12 13 
 14 16 17 18 19 20 21 22 23 24 26 27 
 28 30 31 32 33 34 35 36 37 38 39 40 
 41 42 43 44 45 46 47 48 49 50 51 52 
 53 55 56 57 58 59 60 61 
 27 
 1 2 9 10 12 13 14 17 18 20 22 24 
 26 28 30 31 32 33 41 46 50 52 53 54 
 57 59 60 
 35 
 1 2 4 5 10 11 12 13 16 19 20 21 
 22 23 24 26 30 31 32 33 37 38 39 41 
 42 43 44 46 47 48 50 53 55 57 59 
 11 
 2 4 9 23 35 44 50 51 52 59 61 
 33 
 1 2 4 5 8 9 10 11 12 14 15 16 
 20 21 23 25 26 28 29 31 33 34 36 37 
 39 41 43 44 45 47 59 60 61 
 23 
 6 9 10 12 14 16 17 18 19 24 27 28 
 31 32 37 40 42 46 48 51 52 57 60 
 51 
 1 2 3 5 6 7 8 9 11 13 14 15 
 16 17 18 20 21 22 23 24 25 26 27 28 
 29 30 31 32 33 36 37 38 39 40 41 42 
 43 44 46 47 48 49 50 51 52 53 55 57 
 58 59 61 
 44 
 1 3 7 8 9 10 11 13 14 18 19 20 
 21 22 23 24 25 26 27 29 31 32 33 35 
 36 37 38 40 41 42 43 45 46 47 48 50 
 51 52 53 55 57 58 59 61 
 11 
 3 15 16 20 32 36 37 48 50 51 54 
 3 
 9 19 53 
 34 
 2 3 4 8 10 11 12 15 16 18 19 21 
 23 24 25 26 32 33 34 35 36 37 38 40 
 42 44 50 51 52 55 56 57 59 60 
 61 
 1 2 3 4 5 6 7 8 9 10 11 12 
 13 14 15 16 17 18 19 20 21 22 23 24 
 25 26 27 28 29 30 31 32 33 34 35 36 
 37 38 39 40 41 42 43 44 45 46 47 48 
 49 50 51 52 53 54 55 56 57 58 59 60 
 61 
 46 
 1 3 4 6 7 8 9 10 11 14 15 17 
 18 19 20 21 23 25 26 27 28 29 31 33 
 34 35 36 37 39 40 41 43 44 45 46 47 
 48 49 50 51 52 55 57 59 60 61 
 33 
 3 4 6 10 11 16 18 19 21 22 23 26 
 27 28 29 31 34 35 37 38 39 41 45 46 
 49 50 51 55 56 57 59 60 61 
 31 
 1 2 3 4 5 6 8 11 13 15 19 22 
 23 25 28 29 30 32 34 35 37 41 42 46 
 48 49 51 53 56 57 58 
 19 
 2 6 8 9 11 13 20 23 30 31 34 38 
 41 44 48 51 53 55 59 
 34 
 1 2 4 5 6 10 11 14 16 20 22 24 
 26 27 28 29 32 33 38 39 40 42 43 44 
 45 50 51 52 54 55 56 57 60 61 
 39 
 1 4 6 7 9 10 12 13 14 15 16 17 
 18 19 21 22 23 29 31 34 36 37 38 40 
 42 43 46 47 48 49 50 51 52 53 54 56 
 57 58 60 
 34 
 1 3 5 10 11 12 15 16 17 18 19 20 
 21 23 26 28 30 32 33 36 38 39 41 42 
 43 45 47 48 49 50 55 56 59 60 
 35 
 1 4 5 6 9 10 12 13 16 17 19 20 
 22 23 26 27 28 29 32 34 35 39 41 45 
 46 47 48 51 52 53 54 56 57 59 60 
 32 
 1 2 3 6 8 9 11 12 13 14 15 18 
 21 28 29 32 33 35 36 37 40 41 44 47 
 48 49 50 51 52 55 57 60 
 33 
 2 3 5 8 10 12 13 14 15 16 17 19 
 20 21 25 26 31 32 33 34 35 37 43 44 
 46 49 50 51 54 56 57 59 61 
 7 
 1 19 27 34 36 38 56 
 4 
 12 16 18 53 
 8 
 2 13 33 34 42 51 54 57 
 18 
 2 3 4 13 14 15 18 22 26 32 38 47 
 48 51 53 55 57 58 
 35 
 1 2 3 4 5 7 9 10 14 16 19 20 
 21 25 26 27 28 30 31 34 35 39 41 42 
 44 45 46 47 49 50 51 52 55 58 60 
 13 
 2 7 10 21 25 37 43 44 46 47 50 60 
 61 
 24 
 1 3 6 8 9 11 13 15 16 18 19 22 
 24 25 27 32 33 39 40 42 43 49 55 61 
 52 
 1 2 3 4 5 6 8 9 10 11 12 14 
 15 16 17 18 19 20 21 22 23 25 26 27 
 28 29 30 31 32 33 34 35 36 37 40 41 
 42 43 44 45 47 48 49 50 52 53 54 55 
 57 58 60 61 
 15 
 9 10 18 23 29 30 37 41 42 44 49 51 
 56 57 58 
 34 
 3 4 6 7 10 12 14 15 17 19 21 23 
 24 26 29 30 32 34 35 36 37 38 39 40 
 43 45 47 48 52 54 55 56 58 60 
 43 
 1 2 3 4 5 7 8 9 11 13 15 16 
 18 19 20 22 23 24 26 27 28 29 33 34 
 36 38 40 41 44 46 47 48 49 50 51 52 
 54 56 57 58 59 60 61 
 14 
 1 12 20 26 34 35 36 45 46 51 52 56 
 60 61 
 53 
 1 2 3 4 6 7 8 10 11 12 13 14 
 15 16 18 19 20 21 22 23 24 25 26 27 
 28 29 30 32 33 35 36 37 38 39 40 43 
 44 45 46 47 48 49 50 51 52 53 54 55 
 56 57 58 60 61 
 33 
 1 2 3 5 10 13 14 15 17 19 21 26 
 27 28 30 31 32 34 35 36 37 38 40 46 
 47 48 49 50 51 52 55 57 58 
 15 
 4 10 13 23 26 27 33 37 38 43 50 52 
 56 58 59 
 35 
 2 3 4 5 6 8 11 12 14 15 17 19 
 23 24 25 29 33 34 35 36 41 43 44 45 
 46 49 50 52 53 54 55 56 57 58 59 
 6 
 2 12 45 51 53 60 
 37 
 2 4 5 8 9 10 12 14 17 19 20 21 
 23 27 28 29 30 31 34 35 37 38 39 40 
 41 42 45 47 51 52 53 54 55 56 57 59 
 60 
 18 
 1 4 7 9 17 20 21 27 31 32 35 48 
 49 52 54 57 58 61 
 19 
 3 6 7 10 12 13 16 17 23 25 31 33 
 34 50 52 54 55 57 58 
 33 
 4 5 6 7 8 9 10 11 14 15 18 19 
 21 22 25 27 28 29 30 31 33 35 37 38 
 39 40 42 43 44 47 49 57 60 
 8 
 10 16 21 27 34 35 51 58 
 53 
 1 2 3 4 5 6 7 8 9 11 12 14 
 15 16 18 19 21 22 23 24 25 26 27 28 
 29 30 32 33 34 35 36 37 38 39 40 41 
 42 43 44 45 47 48 49 51 52 53 54 55 
 56 57 58 59 60 
 42 
 1 2 3 5 8 9 10 11 12 14 15 16 
 17 18 19 20 22 24 25 27 28 29 30 31 
 32 33 36 38 39 42 46 47 48 50 51 52 
 54 55 56 57 58 59 
 60 
 2 3 4 5 6 7 8 9 10 11 12 13 
 14 15 16 17 18 19 20 21 22 23 24 25 
 26 27 28 29 30 31 32 33 34 35 36 37 
 38 39 40 41 42 43 44 45 46 47 48 49 
 50 51 52 53 54 55 56 57 58 59 60 61 
 42 
 1 4 6 7 8 10 11 12 13 14 15 18 
 20 22 23 24 27 28 29 30 31 33 35 36 
 37 38 39 40 41 43 44 47 50 51 52 53 
 54 55 56 59 60 61 
 43 
 1 2 3 4 5 6 8 9 10 11 15 17 
 18 19 20 22 23 25 26 28 30 31 32 35 
 36 37 38 39 41 42 47 49 50 51 52 53 
 54 55 56 57 58 59 60 
 57 
 1 2 3 4 5 6 7 8 9 10 11 12 
 13 14 15 16 17 18 19 20 21 22 23 24 
 25 26 27 28 29 30 31 32 33 34 35 37 
 38 39 40 41 42 43 44 45 46 47 48 49 
 50 51 52 53 54 56 57 60 61 
 43 
 2 4 5 7 8 9 10 12 13 14 15 16 
 17 18 19 20 21 24 26 28 29 30 31 32 
 33 35 36 37 38 39 40 41 42 45 46 47 
 48 51 55 57 58 60 61 
 44 
 3 4 5 6 7 9 11 12 13 14 15 16 
 17 18 19 20 21 23 24 25 27 28 29 30 
 31 32 34 36 39 40 42 43 46 47 48 49 
 50 51 52 53 54 58 60 61 
 48 
 1 2 3 4 5 7 9 11 12 13 15 16 
 18 19 22 24 25 26 29 30 31 32 33 34 
 35 36 37 38 40 41 43 44 45 46 47 48 
 49 50 51 52 53 54 55 56 57 59 60 61 
 61 
 1 2 3 4 5 6 7 8 9 10 11 12 
 13 14 15 16 17 18 19 20 21 22 23 24 
 25 26 27 28 29 30 31 32 33 34 35 36 
 37 38 39 40 41 42 43 44 45 46 47 48 
 49 50 51 52 53 54 55 56 57 58 59 60 
 61 
 48 
 1 2 3 4 5 6 8 9 10 12 13 14 
 15 18 19 20 21 22 23 24 25 26 28 29 
 30 31 33 34 35 36 38 39 40 41 43 44 
 45 46 47 51 52 53 54 55 56 58 59 61 
 3 
 28 31 56 
 